ITEM = 1..45;
capacity1 = 390;
capacity2 = 390;
capacity3 = 390;
profits = [30, 35, 39, 27, 43, 63, 48, 72, 20, 39, 29, 45, 21, 27, 20, 22, 37, 31, 21, 36, 39, 44, 37, 21, 22, 73, 65, 82, 61, 68, 46, 37, 50, 38, 21, 35, 27, 43, 48, 59, 35, 103, 33, 52, 31];
weights = [41, 53, 34, 21, 66, 73, 57, 65, 17, 49, 20, 72, 32, 41, 15, 79, 42, 33, 67, 37, 82, 54, 60, 37, 16, 83, 70, 78, 65, 65, 44, 66, 44, 47, 72, 25, 17, 63, 87, 91, 26, 94, 24, 70, 48];
